%nprocshared=30
%mem=80GB
%chk=C:\Users\shxu\Desktop\tria\strain3.chk
#p opt freq rohf/gen nosymm geom=connectivity 6d gfinput pop=reg

strain3

0 1
 C                 -3.85262284    0.00000000   -0.00000000
 C                 -3.08521898   -1.33922175    0.00000000
 C                 -1.54381965   -1.34198573    0.00000000
 C                 -0.77037762    0.00000000   -0.00000000
 C                 -1.54381965    1.34198573   -0.00000000
 C                 -3.08521898    1.33922175   -0.00000000
 C                 -5.39333658    0.00000000   -0.00000000
 C                 -6.16696964   -1.33194473    0.00000000
 C                 -5.39989157   -2.66737030    0.00000000
 C                 -3.85937953   -2.67105822    0.00000000
 C                 -6.16696964    1.33194473   -0.00000000
 C                 -5.39989157    2.66737030   -0.00000000
 C                 -3.85937953    2.67105822   -0.00000000
 C                 -6.15540947    4.00227514    0.00000000
 C                 -7.69528585    4.00555144    0.00000000
 C                 -8.46765992    2.67361677    0.00000000
 C                 -7.70066799    1.33869372    0.00000000
 C                 -7.70066799   -1.33869372    0.00000000
 C                 -8.47390256    0.00000000    0.00000000
 C                 -6.15540947   -4.00227514    0.00000000
 C                 -7.69528585   -4.00555144    0.00000000
 C                 -8.46765992   -2.67361677    0.00000000
 C                  0.77037762    0.00000000   -0.00000000
 C                  1.54381965   -1.34198573   -0.00000000
 C                  3.08521898   -1.33922175   -0.00000000
 C                  3.85262284    0.00000000   -0.00000000
 C                  3.08521898    1.33922175    0.00000000
 C                  1.54381965    1.34198573    0.00000000
 C                  3.85937953    2.67105822    0.00000000
 C                  5.39989157    2.66737030    0.00000000
 C                  6.16696964    1.33194473    0.00000000
 C                  5.39333658    0.00000000   -0.00000000
 C                  6.16696964   -1.33194473   -0.00000000
 C                  5.39989157   -2.66737030   -0.00000000
 C                  3.85937953   -2.67105822   -0.00000000
 H                 -0.97538357   -2.33025696    0.00000000
 H                 -0.97538357    2.33025696   -0.00000000
 H                 -3.29203129   -3.65982422    0.00000000
 H                 -3.29203129    3.65982422   -0.00000000
 H                 -5.58353734    4.98838049    0.00000000
 H                 -8.26339320    4.99394975    0.00000000
 H                 -9.60762661    2.67587271    0.00000000
 H                 -9.61391393    0.00000000    0.00000000
 H                 -5.58353734   -4.98838049    0.00000000
 H                 -8.26339320   -4.99394975    0.00000000
 H                 -9.60762661   -2.67587271    0.00000000
 H                  0.97538357   -2.33025696   -0.00000000
 H                  0.97538357    2.33025696    0.00000000
 H                  3.29203129    3.65982422    0.00000000
 H                  3.29203129   -3.65982422   -0.00000000
 C                  7.70066799    1.33869372   -0.00000000
 C                  8.46765992    2.67361677   -0.00000000
 C                  7.69528585    4.00555144   -0.00000000
 C                  6.15540947    4.00227514   -0.00000000
 C                  7.70066799   -1.33869372    0.00000000
 C                  8.47390256    0.00000000    0.00000000
 C                  6.15540947   -4.00227514    0.00000000
 C                  7.69528585   -4.00555144    0.00000000
 C                  8.46765992   -2.67361677    0.00000000
 H                  9.60762661    2.67587271   -0.00000000
 H                  8.26339320    4.99394975   -0.00000000
 H                  5.58353734    4.98838049   -0.00000000
 H                  9.61391393    0.00000000    0.00000000
 H                  5.58353734   -4.98838049    0.00000000
 H                  8.26339320   -4.99394975    0.00000000
 H                  9.60762661   -2.67587271    0.00000000

 1 2 1.0 6 1.0 7 1.0
 2 3 1.0 10 1.0
 3 4 1.0
 4 5 1.0 23 1.0
 5 6 1.0
 6 13 1.0
 7 8 1.0 11 1.0
 8 9 1.0 18 1.0
 9 10 1.0 20 1.0
 10
 11 12 1.0 17 1.0
 12 13 1.0 14 1.0
 13
 14 15 1.0
 15 16 1.0
 16 17 1.0
 17 19 1.0
 18 19 1.0 22 1.0
 19
 20 21 1.0
 21 22 1.0
 22
 23 24 1.0 28 1.0
 24 25 1.0
 25 26 1.0 35 1.0
 26 27 1.0 32 1.0
 27 28 1.0 29 1.0
 28
 29 30 1.0
 30 31 1.0 54 1.0
 31 32 1.0 51 1.0
 32 33 1.0
 33 34 1.0 55 1.0
 34 35 1.0 57 1.0
 35
 36
 37
 38
 39
 40
 41
 42
 43
 44
 45
 46
 47
 48
 49
 50
 51 52 1.0 56 1.0
 52 53 1.0
 53 54 1.0
 54
 55 56 1.0 59 1.0
 56
 57 58 1.0
 58 59 1.0
 59
 60
 61
 62
 63
 64
 65
 66

H     0
S    2   1.00
      0.5447178000D+01       0.1562849787D+00
      0.8245472400D+00       0.9046908767D+00
S    1   1.00
      0.1831915800D+00       1.0000000
****
C     0
S    3   1.00
      0.1722560000D+03       0.6176690738D-01
      0.2591090000D+02       0.3587940429D+00
      0.5533350000D+01       0.7007130837D+00
SP   2   1.00
      0.3664980000D+01      -0.3958951621D+00       0.2364599466D+00
      0.7705450000D+00       0.1215834356D+01       0.8606188057D+00
SP   1   1.00
      0.1958570000D+00       0.1000000000D+01       0.1000000000D+01
****







