%chk=C:\Users\shxu\Desktop\pi-CH.chk
# freq rb3lyp/6-31g(d,p) geom=connectivity

Pi-CH OPT

0 1 0 1 0 1
 C(Fragment=1)      0.00001107    0.69823529   -1.20935774
 C(Fragment=1)      0.00001844   -0.69822257   -1.20934648
 C(Fragment=1)      0.00000497   -1.39649647   -0.00000122
 C(Fragment=1)      0.00001869   -0.69823431    1.20936528
 C(Fragment=1)      0.00002548    0.69821143    1.20932083
 C(Fragment=1)      0.00002023    1.39649924    0.00000751
 H(Fragment=1)     -0.00000267    1.24147684   -2.15028055
 H(Fragment=1)     -0.00000316   -1.24147568   -2.15028122
 H(Fragment=1)     -0.00000142   -2.48297770    0.00000241
 H(Fragment=1)     -0.00000165    2.48297770   -0.00000709
 H(Fragment=1)     -0.00000099   -1.24146661    2.15028628
 H(Fragment=1)     -0.00000017    1.24146525    2.15028705
 C(Fragment=2)      2.71625279    0.01562191    0.01415529
 H(Fragment=2)      3.81424575    0.00610871   -0.01436538
 H(Fragment=2)      2.41438669   -0.22088041    1.02658795
 H(Fragment=2)      2.39042752    1.00747250   -0.26961543
 H(Fragment=2)      2.36414689   -0.72999778   -0.68513655

 1 2 1.5 6 1.5 7 1.0
 2 3 1.5 8 1.0
 3 4 1.5 9 1.0
 4 5 1.5 11 1.0
 5 6 1.5 12 1.0
 6 10 1.0
 7
 8
 9
 10
 11
 12
 13 14 1.0 15 1.0 16 1.0 17 1.0
 14
 15
 16
 17

