%nprocshared=20
%mem=40GB
%chk=C:\Users\shxu\Desktop\b1.chk
#p opt rohf/gen geom=connectivity 6d gfinput iop(6/7=3,5/7=1024) pop=reg
pseudo=read

opt and freq

0 1
 C                  3.47717426   -2.01909528    0.00000000
 C                  4.75885818   -4.08803309    0.00000000
 C                  4.72518204   -2.70830452    0.00000000
 C                  2.44335103   -1.40659639    0.00000000
 C                  1.22412284   -0.66525423    0.00000000
 C                  5.99134030   -1.92226421    0.00000000
 C                 -1.21783352   -0.66086367    0.00000000
 C                 -1.21529063    0.75344509    0.00000000
 C                  1.26388165    0.77150047    0.00000000
 C                 -2.43971964   -1.39781677    0.00000000
 C                 -4.76485408   -4.07090973    0.00000000
 C                 -4.72621675   -2.69131118    0.00000000
 C                 -3.47573870   -2.00659414    0.00000000
 C                 -2.43451882    1.49478724    0.00000000
 C                 -3.46834206    2.10728613    0.00000000
 C                 -4.71634983    2.79649537    0.00000000
 C                  2.42768688    1.47315604    0.00000000
 C                  3.50579089    2.10576313    0.00000000
 C                  4.69747800    2.75892952    0.00000000
 C                  5.99837248    1.98891379    0.00000000
 C                  6.02767067    0.66036122    0.00000000
 C                  6.02541568   -0.59382559    0.00000000
 C                  3.46493270   -8.82758381    0.00000000
 C                  4.74661689  -10.89652258    0.00000000
 C                  4.71294054   -9.51679380    0.00000000
 C                  2.43110928   -8.21508504    0.00000000
 C                  1.21188122   -7.47374371    0.00000000
 C                 -0.01030273   -8.14226134    0.00000000
 C                  5.97909886   -8.73075304    0.00000000
 C                 -1.23007483   -7.46935314    0.00000000
 C                 -1.22753194   -6.05504343    0.00000000
 C                  1.21442411   -6.05943399    0.00000000
 C                 -2.45196082   -8.20630542    0.00000000
 C                 -4.77709572  -10.87939923    0.00000000
 C                 -4.73845818   -9.49980047    0.00000000
 C                 -3.48798006   -8.81508268    0.00000000
 C                 -2.44676001   -5.31370210    0.00000000
 C                 -3.48058342   -4.70120333    0.00000000
 C                 -4.72859126   -4.01199334    0.00000000
 C                  2.43631010   -5.32248172    0.00000000
 C                  3.47232934   -4.71370446    0.00000000
 C                  4.72280746   -4.02898667    0.00000000
 C                  5.98613105   -4.81957537    0.00000000
 C                  6.01542940   -6.14812819    0.00000000
 C                  6.01317441   -7.40231416    0.00000000
 C                  3.51059617    4.77833970    0.00000000
 C                  4.77109982    2.72045641    0.00000000
 C                  4.69992656    4.12089178    0.00000000
 C                  2.43477383    5.41481931    0.00000000
 C                  1.27349890    6.12065481    0.00000000
 C                  6.00358179    4.88622495    0.00000000
 C                 -1.20559190    6.14762485    0.00000000
 C                 -1.20304902    7.56193456    0.00000000
 C                  0.01913493    8.23045219    0.00000000
 C                  1.23890704    7.55754400    0.00000000
 C                 -2.42747790    5.41067257    0.00000000
 C                 -4.75261279    2.73757976    0.00000000
 C                 -4.71397525    4.11717752    0.00000000
 C                 -3.46349713    4.80189531    0.00000000
 C                 -2.42227708    8.30327589    0.00000000
 C                 -3.45610050    8.91577466    0.00000000
 C                 -4.70410834    9.60498465    0.00000000
 C                  2.46079303    8.29449627    0.00000000
 C                  3.49681226    8.90327353    0.00000000
 C                  5.98166200    8.81552079    0.00000000
 C                  6.03991233    7.46884980    0.00000000
 C                  6.03765734    6.21466383    0.00000000
 C                  5.83162816  -11.64099788    0.00000000
 C                 -4.73902251   10.92821270    0.00000000
 C                  4.77624236    9.56987315    0.00000000
 C                  4.67671408   10.98838580    0.00000000
 C                  5.85225795   11.78849867    0.00000000
 C                  0.00707326    1.52196265    0.00000000
 C                  0.00948254    2.86196048    0.00000000
 C                  0.01420577    5.48893643    0.00000000
 C                  0.01179649    4.14893860    0.00000000
 C                 -0.00534800   -5.38652580    0.00000000
 C                 -0.00267553   -3.90014800    0.00000000
 C                  0.00193874   -1.33377196    0.00000000
 C                 -0.00051797   -2.70014994    0.00000000

 1 3 1.5 4 3.0
 2 3 2.0 41 1.5 42 3.0 43 1.5
 3 6 1.0 42 2.0
 4 5 1.5
 5 9 1.5 79 1.5
 6 22 2.0
 7 8 1.5 10 1.5 79 1.5
 8 14 1.5 73 1.5
 9 17 1.5 73 1.5
 10 13 3.0
 11 12 2.0 38 1.5 39 3.0
 12 13 1.5 39 2.0
 13
 14 15 3.0
 15 16 1.5 57 1.5
 16 57 3.0 58 2.0
 17 18 3.0
 18 19 1.5 47 1.5
 19 20 1.0 47 3.0 48 2.0
 20 21 2.0 47 1.5
 21 22 2.0
 22
 23 25 1.5 26 3.0
 24 25 2.0
 25 29 1.0
 26 27 1.5
 27 28 1.5 32 1.5
 28 30 1.5
 29 45 2.0
 30 31 1.5 33 1.5
 31 37 1.5 77 1.5
 32 40 1.5 77 1.5
 33 36 3.0
 34 35 2.0
 35 36 1.5
 36
 37 38 3.0
 38 39 1.5
 39
 40 41 3.0
 41 42 1.5
 42 43 1.0
 43 44 2.0
 44 45 2.0
 45
 46 48 1.5 49 3.0
 47 48 2.0
 48 51 1.0
 49 50 1.5
 50 55 1.5 75 1.5
 51 67 2.0
 52 53 1.5 56 1.5 75 1.5
 53 54 1.5 60 1.5
 54 55 1.5
 55 63 1.5
 56 59 3.0
 57 58 2.0
 58 59 1.5
 59
 60 61 3.0
 61 62 1.5
 62
 63 64 3.0
 64 70 1.5
 65 66 2.0 70 1.5
 66 67 2.0
 67
 68 82 1.5
 69 81 1.5
 70 71 1.5
 71 72 1.5
 72
 73 74 1.0
 74 76 3.0
 75 76 1.0
 76
 77 78 1.0
 78 80 3.0
 79 80 1.0
 80
 81
 82

S   3   1.00
      0.3425250914D+01       0.1543289673D+00
      0.6239137298D+00       0.5353281423D+00
      0.1688554040D+00       0.4446345422D+00
****
C     0
S   6   1.00
      0.3047524880D+04       0.1834737132D-02
      0.4573695180D+03       0.1403732281D-01
      0.1039486850D+03       0.6884262226D-01
      0.2921015530D+02       0.2321844432D+00
      0.9286662960D+01       0.4679413484D+00
      0.3163926960D+01       0.3623119853D+00
SP   3   1.00
      0.7868272350D+01      -0.1193324198D+00       0.6899906659D-01
      0.1881288540D+01      -0.1608541517D+00       0.3164239610D+00
      0.5442492580D+00       0.1143456438D+01       0.7443082909D+00
SP   1   1.00
      0.1687144782D+00       0.1000000000D+01       0.1000000000D+01
****
Co     0
S   4   1.00
      7.1760000              0.1736161
      2.0090000             -0.3970442
      0.8055000             -0.4630622
      0.1070000              1.0899654
S   3   1.00
      7.1760000             -0.3856734
      2.0090000              0.7453116
      0.8055000              0.5091819
S   1   1.00
      0.0375000              1.0000000
P   3   1.00
     21.3900000             -0.0480413
      2.6500000              0.6222337
      0.8619000              0.4758042
P   1   1.00
      0.0800000              1.0000000
P   1   1.00
      0.0230000              1.0000000
D   4   1.00
     39.2500000              0.0361541
     10.7800000              0.1896744
      3.4960000              0.4524981
      1.0660000              0.5710427
D   1   1.00
      0.2606000              1.0000000
****

CO     0
CO-ECP     2     10
d potential
  3
1    434.1076104            -10.0000000
2     78.8402758            -66.7240276
2     19.6037749            -11.7192243
s-d potential
  4
0    151.2307582              3.0000000
1    169.6790026             20.1553110
2     64.9909423            413.3762244
2     12.5076287            133.8727705
p-d potential
  4
0     92.7319924              5.0000000
1    121.1910183              6.1892353
2     48.6265909            326.3215919
2     11.9966971             73.8788970

--Link1--
%nprocshared=20
%mem=40GB
%chk=b1.chk
#p ROHF/Gen Geom=Check Guess=read pop=reg Pseudo=Read Freq
gfinput iop(6/7=3,5/7=1024) 6d

Frequency calculation

0 1

H     0
S   3   1.00
      0.3425250914D+01       0.1543289673D+00
      0.6239137298D+00       0.5353281423D+00
      0.1688554040D+00       0.4446345422D+00
****
C     0
S   6   1.00
      0.3047524880D+04       0.1834737132D-02
      0.4573695180D+03       0.1403732281D-01
      0.1039486850D+03       0.6884262226D-01
      0.2921015530D+02       0.2321844432D+00
      0.9286662960D+01       0.4679413484D+00
      0.3163926960D+01       0.3623119853D+00
SP   3   1.00
      0.7868272350D+01      -0.1193324198D+00       0.6899906659D-01
      0.1881288540D+01      -0.1608541517D+00       0.3164239610D+00
      0.5442492580D+00       0.1143456438D+01       0.7443082909D+00
SP   1   1.00
      0.1687144782D+00       0.1000000000D+01       0.1000000000D+01
****
Co     0
S   4   1.00
      7.1760000              0.1736161
      2.0090000             -0.3970442
      0.8055000             -0.4630622
      0.1070000              1.0899654
S   3   1.00
      7.1760000             -0.3856734
      2.0090000              0.7453116
      0.8055000              0.5091819
S   1   1.00
      0.0375000              1.0000000
P   3   1.00
     21.3900000             -0.0480413
      2.6500000              0.6222337
      0.8619000              0.4758042
P   1   1.00
      0.0800000              1.0000000
P   1   1.00
      0.0230000              1.0000000
D   4   1.00
     39.2500000              0.0361541
     10.7800000              0.1896744
      3.4960000              0.4524981
      1.0660000              0.5710427
D   1   1.00
      0.2606000              1.0000000
****

CO     0
CO-ECP     2     10
d potential
  3
1    434.1076104            -10.0000000
2     78.8402758            -66.7240276
2     19.6037749            -11.7192243
s-d potential
  4
0    151.2307582              3.0000000
1    169.6790026             20.1553110
2     64.9909423            413.3762244
2     12.5076287            133.8727705
p-d potential
  4
0     92.7319924              5.0000000
1    121.1910183              6.1892353
2     48.6265909            326.3215919
2     11.9966971             73.8788970


















